proyfinal/src/viki/013/experimentInOfficeAgust.take6.output/131d88a1-f2cb-431e-941d-53bd38c56825.als.out
Reading from standard input... Use '--help' for help.
============================[ Problem Statistics ]=============================
|                                                                             |
|  Number of variables:         87638                                         |
|  Number of clauses:          161767                                         |
|  Parse time:                   0.03 s                                       |
|                                                                             |
============================[ Search Statistics ]==============================
| Conflicts |          ORIGINAL         |          LEARNT          | Progress |
|           |    Vars  Clauses Literals |    Limit  Clauses Lit/Cl |          |
===============================================================================
|       100 |   63370   109015   271686 |    39972      100     11 | 27.691 % |
|       250 |   63370   109015   271686 |    43969      250     19 | 27.691 % |
|       475 |   63370   109015   271686 |    48366      475     18 | 27.691 % |
|       812 |   63370   109015   271686 |    53202      812     31 | 27.691 % |
|      1318 |   63370   109015   271686 |    58523     1318     45 | 27.691 % |
|      2077 |   63370   109015   271686 |    64375     2077     66 | 27.691 % |
|      3216 |   63339   108849   271274 |    70813     3087     77 | 27.727 % |
|      4924 |   63335   108833   271230 |    77894     4712     76 | 27.731 % |
|      7486 |   63331   108817   271186 |    85683     7189     77 | 27.736 % |
|     11330 |   63331   108817   271186 |    94252    11033     87 | 27.736 % |
|     17096 |   63108   107937   269095 |   103677    16784     98 | 27.990 % |
===============================================================================
restarts              : 63
conflicts             : 18913          (7489 /sec)
decisions             : 63067          (0.00 % random) (24972 /sec)
propagations          : 23729384       (9396012 /sec)
conflict literals     : 1806805        (49.45 % deleted)
Memory used           : 38.81 MB
CPU time              : 2.52547 s

UNSATISFIABLE
